problems/GracefulHelms/GracefulHelms-models/compact/O2/lingeling/model-n09-solution000001.solution
language Essence 1.3

letting colouring be
        function(0 --> 7, 1 --> 16, 2 --> 8, 3 --> 1, 4 --> 0, 5 --> 25, 6 --> 10, 7 --> 24, 8 --> 3, 9 --> 20,
                 10 --> 26, 11 --> 14, 12 --> 13, 13 --> 22, 14 --> 2, 15 --> 5, 16 --> 6, 17 --> 19, 18 --> 27)
letting edgeID be
        function(0 --> 9, 1 --> 8, 2 --> 7, 3 --> 1, 4 --> 25, 5 --> 15, 6 --> 14, 7 --> 21, 8 --> 4, 9 --> 13,
                 10 --> 10, 11 --> 6, 12 --> 12, 13 --> 22, 14 --> 23, 15 --> 5, 16 --> 18, 17 --> 16, 18 --> 20,
                 19 --> 11, 20 --> 19, 21 --> 26, 22 --> 27, 23 --> 2, 24 --> 17, 25 --> 3, 26 --> 24)
